; Options: -in -smt2
(set-option :produce-unsat-assumptions true)

(declare-fun start!917 () Bool)

(assert start!917)

(declare-fun b!4162 () Bool)

(declare-fun e!2028 () Bool)

(declare-fun e!2025 () Bool)

(assert (=> b!4162 (= e!2028 e!2025)))

(declare-fun res!3225 () Bool)

(assert (=> b!4162 (=> (not res!3225) (not e!2025))))

(declare-datatypes ((Unit!327 0))(
  ( (Unit!328) )
))
(declare-datatypes ((array!258 0))(
  ( (array!259 (arr!113 (Array (_ BitVec 32) (_ BitVec 32))) (size!113 (_ BitVec 32))) )
))
(declare-datatypes ((tuple4!152 0))(
  ( (tuple4!153 (_1!131 Unit!327) (_2!131 array!258) (_3!119 (_ BitVec 32)) (_4!76 (_ FloatingPoint 11 53))) )
))
(declare-fun lt!2659 () tuple4!152)

(declare-fun jz!53 () (_ BitVec 32))

(declare-fun lt!2656 () (_ FloatingPoint 11 53))

(declare-fun i!252 () (_ BitVec 32))

(assert (=> b!4162 (= res!3225 (and (fp.leq (fp #b0 #b00000000000 #b0000000000000000000000000000000000000000000000000000) lt!2656) (fp.lt lt!2656 (fp #b0 #b10000000010 #b0000000000000000000000000000000000000000000000000000)) (bvsge (select (arr!113 (_2!131 lt!2659)) (bvsub jz!53 #b00000000000000000000000000000001)) #b00000000100000000000000000000000) (bvsle #b00000000000000000000000000000000 i!252) (bvsle i!252 (bvsub jz!53 #b00000000000000000000000000000001))))))

(assert (=> b!4162 (= lt!2656 (fp.sub roundNearestTiesToEven (_4!76 lt!2659) (fp.mul roundNearestTiesToEven (fp #b0 #b10000000010 #b0000000000000000000000000000000000000000000000000000) ((_ to_fp 11 53) roundNearestTiesToEven (ite (fp.isNaN (fp.mul roundNearestTiesToEven (_4!76 lt!2659) (fp #b0 #b01111111100 #b0000000000000000000000000000000000000000000000000000))) #b0000000000000000000000000000000000000000000000000000000000000000 (ite (fp.gt (fp.mul roundNearestTiesToEven (_4!76 lt!2659) (fp #b0 #b01111111100 #b0000000000000000000000000000000000000000000000000000)) ((_ to_fp 11 53) roundTowardZero #b0111111111111111111111111111111111111111111111111111111111111111)) #b0111111111111111111111111111111111111111111111111111111111111111 (ite (fp.lt (fp.mul roundNearestTiesToEven (_4!76 lt!2659) (fp #b0 #b01111111100 #b0000000000000000000000000000000000000000000000000000)) ((_ to_fp 11 53) roundTowardZero #b1000000000000000000000000000000000000000000000000000000000000000)) #b1000000000000000000000000000000000000000000000000000000000000000 ((_ fp.to_sbv 64) roundTowardZero (fp.mul roundNearestTiesToEven (_4!76 lt!2659) (fp #b0 #b01111111100 #b0000000000000000000000000000000000000000000000000000))))))))))))

(declare-fun e!2026 () tuple4!152)

(assert (=> b!4162 (= lt!2659 e!2026)))

(declare-fun c!677 () Bool)

(assert (=> b!4162 (= c!677 (bvsgt jz!53 #b00000000000000000000000000000000))))

(declare-fun lt!2657 () (_ FloatingPoint 11 53))

(declare-datatypes ((array!260 0))(
  ( (array!261 (arr!114 (Array (_ BitVec 32) (_ FloatingPoint 11 53))) (size!114 (_ BitVec 32))) )
))
(declare-fun q!85 () array!260)

(assert (=> b!4162 (= lt!2657 (select (arr!114 q!85) jz!53))))

(declare-fun lt!2660 () array!258)

(assert (=> b!4162 (= lt!2660 (array!259 ((as const (Array (_ BitVec 32) (_ BitVec 32))) #b00000000000000000000000000000000) #b00000000000000000000000000010100))))

(declare-fun b!4164 () Bool)

(declare-fun res!3223 () Bool)

(assert (=> b!4164 (=> (not res!3223) (not e!2028))))

(declare-fun qInv!0 (array!260) Bool)

(assert (=> b!4164 (= res!3223 (qInv!0 q!85))))

(declare-fun b!4165 () Bool)

(declare-fun Unit!329 () Unit!327)

(assert (=> b!4165 (= e!2026 (tuple4!153 Unit!329 lt!2660 jz!53 lt!2657))))

(declare-fun b!4166 () Bool)

(declare-fun e!2024 () Bool)

(declare-fun carry!58 () (_ BitVec 32))

(declare-fun lt!2658 () (_ BitVec 32))

(assert (=> b!4166 (= e!2024 (and (not (= carry!58 #b00000000000000000000000000000000)) (not (= #b00000000000000000000000000000000 (bvand lt!2658 #b10000000000000000000000000000000))) (not (= #b00000000000000000000000000000000 (bvand (bvsub #b00000000111111111111111111111111 lt!2658) #b10000000000000000000000000000000)))))))

(declare-fun b!4167 () Bool)

(declare-fun res!3221 () Bool)

(assert (=> b!4167 (=> (not res!3221) (not e!2025))))

(declare-fun iq!165 () array!258)

(assert (=> b!4167 (= res!3221 (and (bvsge (select (arr!113 iq!165) (bvsub jz!53 #b00000000000000000000000000000001)) #b00000000100000000000000000000000) (or (= carry!58 #b00000000000000000000000000000000) (= carry!58 #b00000000000000000000000000000001)) (bvslt i!252 (bvsub jz!53 #b00000000000000000000000000000001))))))

(declare-fun b!4163 () Bool)

(assert (=> b!4163 (= e!2025 e!2024)))

(declare-fun res!3224 () Bool)

(assert (=> b!4163 (=> (not res!3224) (not e!2024))))

(declare-fun QInt!0 ((_ BitVec 32)) Bool)

(assert (=> b!4163 (= res!3224 (QInt!0 lt!2658))))

(assert (=> b!4163 (= lt!2658 (select (arr!113 iq!165) i!252))))

(declare-fun res!3226 () Bool)

(assert (=> start!917 (=> (not res!3226) (not e!2028))))

(assert (=> start!917 (= res!3226 (and (bvsle #b00000000000000000000000000000010 jz!53) (bvslt jz!53 #b00000000000000000000000000010011)))))

(assert (=> start!917 e!2028))

(assert (=> start!917 true))

(declare-fun array_inv!63 (array!258) Bool)

(assert (=> start!917 (array_inv!63 iq!165)))

(declare-fun array_inv!64 (array!260) Bool)

(assert (=> start!917 (array_inv!64 q!85)))

(declare-fun b!4168 () Bool)

(declare-fun res!3222 () Bool)

(assert (=> b!4168 (=> (not res!3222) (not e!2025))))

(declare-fun iqInv!0 (array!258) Bool)

(assert (=> b!4168 (= res!3222 (iqInv!0 iq!165))))

(declare-fun b!4169 () Bool)

(declare-fun computeModuloWhile!0 ((_ BitVec 32) array!260 array!258 (_ BitVec 32) (_ FloatingPoint 11 53)) tuple4!152)

(assert (=> b!4169 (= e!2026 (computeModuloWhile!0 jz!53 q!85 lt!2660 jz!53 lt!2657))))

(assert (= (and start!917 res!3226) b!4164))

(assert (= (and b!4164 res!3223) b!4162))

(assert (= (and b!4162 c!677) b!4169))

(assert (= (and b!4162 (not c!677)) b!4165))

(assert (= (and b!4162 res!3225) b!4168))

(assert (= (and b!4168 res!3222) b!4167))

(assert (= (and b!4167 res!3221) b!4163))

(assert (= (and b!4163 res!3224) b!4166))

(declare-fun m!6297 () Bool)

(assert (=> b!4168 m!6297))

(declare-fun m!6299 () Bool)

(assert (=> b!4169 m!6299))

(declare-fun m!6301 () Bool)

(assert (=> b!4164 m!6301))

(declare-fun m!6303 () Bool)

(assert (=> b!4162 m!6303))

(declare-fun m!6305 () Bool)

(assert (=> b!4162 m!6305))

(declare-fun m!6307 () Bool)

(assert (=> b!4167 m!6307))

(declare-fun m!6309 () Bool)

(assert (=> b!4163 m!6309))

(declare-fun m!6311 () Bool)

(assert (=> b!4163 m!6311))

(declare-fun m!6313 () Bool)

(assert (=> start!917 m!6313))

(declare-fun m!6315 () Bool)

(assert (=> start!917 m!6315))

(check-sat (not b!4168) (not b!4169) (not b!4164) (not b!4163) (not start!917))
(check-sat)
(get-model)

(declare-fun d!2415 () Bool)

(assert (=> d!2415 (= (array_inv!63 iq!165) (bvsge (size!113 iq!165) #b00000000000000000000000000000000))))

(assert (=> start!917 d!2415))

(declare-fun d!2417 () Bool)

(assert (=> d!2417 (= (array_inv!64 q!85) (bvsge (size!114 q!85) #b00000000000000000000000000000000))))

(assert (=> start!917 d!2417))

(declare-fun d!2419 () Bool)

(declare-fun res!3229 () Bool)

(declare-fun e!2032 () Bool)

(assert (=> d!2419 (=> (not res!3229) (not e!2032))))

(assert (=> d!2419 (= res!3229 (= (size!113 iq!165) #b00000000000000000000000000010100))))

(assert (=> d!2419 (= (iqInv!0 iq!165) e!2032)))

(declare-fun b!4172 () Bool)

(declare-fun lambda!175 () Int)

(declare-fun all20Int!0 (array!258 Int) Bool)

(assert (=> b!4172 (= e!2032 (all20Int!0 iq!165 lambda!175))))

(assert (= (and d!2419 res!3229) b!4172))

(declare-fun m!6317 () Bool)

(assert (=> b!4172 m!6317))

(assert (=> b!4168 d!2419))

(declare-fun d!2421 () Bool)

(assert (=> d!2421 (= (QInt!0 lt!2658) (and (bvsle #b00000000000000000000000000000000 lt!2658) (bvsle lt!2658 #b00000000111111111111111111111111)))))

(assert (=> b!4163 d!2421))

(declare-fun b!4185 () Bool)

(declare-fun res!3240 () Bool)

(declare-fun e!2040 () Bool)

(assert (=> b!4185 (=> (not res!3240) (not e!2040))))

(declare-fun lt!2675 () tuple4!152)

(assert (=> b!4185 (= res!3240 (iqInv!0 (_2!131 lt!2675)))))

(declare-fun b!4186 () Bool)

(declare-fun e!2041 () Bool)

(assert (=> b!4186 (= e!2041 (bvsgt jz!53 #b00000000000000000000000000000000))))

(declare-fun b!4187 () Bool)

(declare-fun res!3238 () Bool)

(assert (=> b!4187 (=> (not res!3238) (not e!2041))))

(assert (=> b!4187 (= res!3238 (iqInv!0 lt!2660))))

(declare-fun d!2423 () Bool)

(assert (=> d!2423 e!2040))

(declare-fun res!3241 () Bool)

(assert (=> d!2423 (=> (not res!3241) (not e!2040))))

(assert (=> d!2423 (= res!3241 (and true true (bvsle #b00000000000000000000000000000000 (_3!119 lt!2675)) (bvsle (_3!119 lt!2675) jz!53) (fp.leq (fp #b0 #b00000000000 #b0000000000000000000000000000000000000000000000000000) (_4!76 lt!2675)) (fp.leq (_4!76 lt!2675) (fp #b0 #b10000110001 #b0100000000000000000000010011111111111111111111111100))))))

(declare-fun e!2039 () tuple4!152)

(assert (=> d!2423 (= lt!2675 e!2039)))

(declare-fun c!680 () Bool)

(declare-fun lt!2674 () (_ BitVec 32))

(assert (=> d!2423 (= c!680 (bvsgt lt!2674 #b00000000000000000000000000000000))))

(assert (=> d!2423 (= lt!2674 (bvsub jz!53 #b00000000000000000000000000000001))))

(declare-fun lt!2671 () (_ FloatingPoint 11 53))

(declare-fun lt!2673 () (_ FloatingPoint 11 53))

(assert (=> d!2423 (= lt!2673 (fp.add roundNearestTiesToEven (select (arr!114 q!85) (bvsub jz!53 #b00000000000000000000000000000001)) lt!2671))))

(declare-fun lt!2672 () array!258)

(assert (=> d!2423 (= lt!2672 (array!259 (store (arr!113 lt!2660) (bvsub jz!53 jz!53) (ite (fp.isNaN (fp.sub roundNearestTiesToEven lt!2657 (fp.mul roundNearestTiesToEven (fp #b0 #b10000010111 #b0000000000000000000000000000000000000000000000000000) lt!2671))) #b00000000000000000000000000000000 (ite (fp.gt (fp.sub roundNearestTiesToEven lt!2657 (fp.mul roundNearestTiesToEven (fp #b0 #b10000010111 #b0000000000000000000000000000000000000000000000000000) lt!2671)) ((_ to_fp 11 53) roundTowardZero #b01111111111111111111111111111111)) #b01111111111111111111111111111111 (ite (fp.lt (fp.sub roundNearestTiesToEven lt!2657 (fp.mul roundNearestTiesToEven (fp #b0 #b10000010111 #b0000000000000000000000000000000000000000000000000000) lt!2671)) ((_ to_fp 11 53) roundTowardZero #b10000000000000000000000000000000)) #b10000000000000000000000000000000 ((_ fp.to_sbv 32) roundTowardZero (fp.sub roundNearestTiesToEven lt!2657 (fp.mul roundNearestTiesToEven (fp #b0 #b10000010111 #b0000000000000000000000000000000000000000000000000000) lt!2671))))))) (size!113 lt!2660)))))

(assert (=> d!2423 (= lt!2671 ((_ to_fp 11 53) roundNearestTiesToEven (ite (fp.isNaN (fp.mul roundNearestTiesToEven (fp #b0 #b01111100111 #b0000000000000000000000000000000000000000000000000000) lt!2657)) #b00000000000000000000000000000000 (ite (fp.gt (fp.mul roundNearestTiesToEven (fp #b0 #b01111100111 #b0000000000000000000000000000000000000000000000000000) lt!2657) ((_ to_fp 11 53) roundTowardZero #b01111111111111111111111111111111)) #b01111111111111111111111111111111 (ite (fp.lt (fp.mul roundNearestTiesToEven (fp #b0 #b01111100111 #b0000000000000000000000000000000000000000000000000000) lt!2657) ((_ to_fp 11 53) roundTowardZero #b10000000000000000000000000000000)) #b10000000000000000000000000000000 ((_ fp.to_sbv 32) roundTowardZero (fp.mul roundNearestTiesToEven (fp #b0 #b01111100111 #b0000000000000000000000000000000000000000000000000000) lt!2657)))))))))

(assert (=> d!2423 e!2041))

(declare-fun res!3239 () Bool)

(assert (=> d!2423 (=> (not res!3239) (not e!2041))))

(assert (=> d!2423 (= res!3239 (and (bvsle #b00000000000000000000000000000000 jz!53) (bvsle jz!53 jz!53) (fp.leq (fp #b0 #b00000000000 #b0000000000000000000000000000000000000000000000000000) lt!2657) (fp.leq lt!2657 (fp #b0 #b10000110001 #b0100000000000000000000010011111111111111111111111100))))))

(assert (=> d!2423 (= (computeModuloWhile!0 jz!53 q!85 lt!2660 jz!53 lt!2657) lt!2675)))

(declare-fun b!4188 () Bool)

(assert (=> b!4188 (= e!2040 (bvsle (_3!119 lt!2675) #b00000000000000000000000000000000))))

(declare-fun b!4189 () Bool)

(assert (=> b!4189 (= e!2039 (computeModuloWhile!0 jz!53 q!85 lt!2672 lt!2674 lt!2673))))

(declare-fun b!4190 () Bool)

(declare-fun Unit!330 () Unit!327)

(assert (=> b!4190 (= e!2039 (tuple4!153 Unit!330 lt!2672 lt!2674 lt!2673))))

(assert (= (and d!2423 res!3239) b!4187))

(assert (= (and b!4187 res!3238) b!4186))

(assert (= (and d!2423 c!680) b!4189))

(assert (= (and d!2423 (not c!680)) b!4190))

(assert (= (and d!2423 res!3241) b!4185))

(assert (= (and b!4185 res!3240) b!4188))

(declare-fun m!6319 () Bool)

(assert (=> b!4185 m!6319))

(declare-fun m!6321 () Bool)

(assert (=> b!4187 m!6321))

(declare-fun m!6323 () Bool)

(assert (=> d!2423 m!6323))

(declare-fun m!6325 () Bool)

(assert (=> d!2423 m!6325))

(declare-fun m!6327 () Bool)

(assert (=> b!4189 m!6327))

(assert (=> b!4169 d!2423))

(declare-fun d!2425 () Bool)

(declare-fun res!3244 () Bool)

(declare-fun e!2044 () Bool)

(assert (=> d!2425 (=> (not res!3244) (not e!2044))))

(assert (=> d!2425 (= res!3244 (= (size!114 q!85) #b00000000000000000000000000010100))))

(assert (=> d!2425 (= (qInv!0 q!85) e!2044)))

(declare-fun b!4193 () Bool)

(declare-fun lambda!178 () Int)

(declare-fun all20!0 (array!260 Int) Bool)

(assert (=> b!4193 (= e!2044 (all20!0 q!85 lambda!178))))

(assert (= (and d!2425 res!3244) b!4193))

(declare-fun m!6329 () Bool)

(assert (=> b!4193 m!6329))

(assert (=> b!4164 d!2425))

(check-sat (not b!4189) (not b!4193) (not b!4187) (not b!4172) (not b!4185))
(check-sat)
